% Auto-generated by scripts/generate_dzn.py
% problem_type   = regex
% instance       = regex_23
% source_json    = instances_json/1_medium_blowup/regex_23.json
% blowup         = 8.04
% representation = NFA

mode = 1;

var_count = 23;
n_constraints = 2;
Q = 14;
S = 2;
q0 = [1, 1];
F = [{14}, {11}];
weights = [2, 10, 3, 9, 3, 7, 5, 9, 4, 1, 8, 10, 10, 9, 10, 7, 2, 8, 8, 10, 7, 1, 8];
d_dfa = array3d(1..2, 1..14, 1..2, [
  % k = 1
    0, 0,
    0, 0,
    0, 0,
    0, 0,
    0, 0,
    0, 0,
    0, 0,
    0, 0,
    0, 0,
    0, 0,
    0, 0,
    0, 0,
    0, 0,
    0, 0,

  % k = 2
    0, 0,
    0, 0,
    0, 0,
    0, 0,
    0, 0,
    0, 0,
    0, 0,
    0, 0,
    0, 0,
    0, 0,
    0, 0,
    0, 0,
    0, 0,
    0, 0
]);
d_nfa = array3d(1..2, 1..14, 1..2, [
  % k = 1
    {1}, {1, 2},
    {}, {3},
    {4}, {},
    {5}, {5},
    {6}, {6},
    {7}, {7},
    {8}, {8},
    {9}, {9},
    {10}, {10},
    {11}, {11},
    {12}, {12},
    {13}, {13},
    {14}, {14},
    {}, {},

  % k = 2
    {1}, {2},
    {2}, {3},
    {3}, {4},
    {4}, {5},
    {5}, {6},
    {6}, {7},
    {7}, {8},
    {8}, {9},
    {9}, {10},
    {10}, {11},
    {11}, {},
    {}, {},
    {}, {},
    {}, {}
]);
